(set-info :category "industrial")
(set-info :status sat)
(declare-fun x01 () (_ BitVec 8))
(declare-fun x02 () (_ BitVec 8))
(declare-fun x04 () (_ BitVec 8))
(declare-fun x05 () (_ BitVec 8))
(declare-fun x06 () (_ BitVec 8))
(declare-fun x12 () (_ BitVec 8))
(declare-fun x15 () (_ BitVec 8))
(declare-fun x17 () (_ BitVec 8))
(declare-fun x18 () (_ BitVec 8))
(declare-fun x20 () (_ BitVec 8))
(declare-fun x21 () (_ BitVec 8))
(declare-fun x24 () (_ BitVec 8))
(declare-fun x25 () (_ BitVec 8))
(declare-fun x27 () (_ BitVec 8))
(declare-fun x28 () (_ BitVec 8))
(declare-fun x31 () (_ BitVec 8))
(declare-fun x32 () (_ BitVec 8))
(declare-fun x33 () (_ BitVec 8))
(declare-fun x34 () (_ BitVec 8))
(declare-fun x36 () (_ BitVec 8))
(declare-fun x37 () (_ BitVec 8))
(declare-fun x42 () (_ BitVec 8))
(declare-fun x44 () (_ BitVec 8))
(declare-fun x45 () (_ BitVec 8))
(declare-fun x46 () (_ BitVec 8))
(declare-fun x47 () (_ BitVec 8))
(declare-fun x50 () (_ BitVec 8))
(declare-fun x51 () (_ BitVec 8))
(declare-fun x52 () (_ BitVec 8))
(declare-fun x53 () (_ BitVec 8))
(declare-fun x55 () (_ BitVec 8))
(declare-fun x58 () (_ BitVec 8))
(declare-fun x61 () (_ BitVec 8))
(declare-fun x63 () (_ BitVec 8))
(declare-fun x64 () (_ BitVec 8))
(declare-fun x66 () (_ BitVec 8))
(declare-fun x68 () (_ BitVec 8))
(declare-fun x70 () (_ BitVec 8))
(declare-fun x72 () (_ BitVec 8))
(declare-fun x74 () (_ BitVec 8))
(declare-fun x76 () (_ BitVec 8))
(declare-fun x77 () (_ BitVec 8))
(declare-fun x78 () (_ BitVec 8))
(declare-fun x80 () (_ BitVec 8))
(declare-fun x81 () (_ BitVec 8))
(declare-fun x85 () (_ BitVec 8))
(declare-fun x87 () (_ BitVec 8))
(assert (bvult x01 (_ bv9 8)))
(assert (bvult x02 (_ bv9 8)))
(assert (bvult x04 (_ bv9 8)))
(assert (bvult x05 (_ bv9 8)))
(assert (bvult x06 (_ bv9 8)))
(assert (bvult x12 (_ bv9 8)))
(assert (bvult x15 (_ bv9 8)))
(assert (bvult x17 (_ bv9 8)))
(assert (bvult x18 (_ bv9 8)))
(assert (bvult x20 (_ bv9 8)))
(assert (bvult x21 (_ bv9 8)))
(assert (bvult x24 (_ bv9 8)))
(assert (bvult x25 (_ bv9 8)))
(assert (bvult x27 (_ bv9 8)))
(assert (bvult x28 (_ bv9 8)))
(assert (bvult x31 (_ bv9 8)))
(assert (bvult x32 (_ bv9 8)))
(assert (bvult x33 (_ bv9 8)))
(assert (bvult x34 (_ bv9 8)))
(assert (bvult x36 (_ bv9 8)))
(assert (bvult x37 (_ bv9 8)))
(assert (bvult x42 (_ bv9 8)))
(assert (bvult x44 (_ bv9 8)))
(assert (bvult x45 (_ bv9 8)))
(assert (bvult x46 (_ bv9 8)))
(assert (bvult x47 (_ bv9 8)))
(assert (bvult x50 (_ bv9 8)))
(assert (bvult x51 (_ bv9 8)))
(assert (bvult x52 (_ bv9 8)))
(assert (bvult x53 (_ bv9 8)))
(assert (bvult x55 (_ bv9 8)))
(assert (bvult x58 (_ bv9 8)))
(assert (bvult x61 (_ bv9 8)))
(assert (bvult x63 (_ bv9 8)))
(assert (bvult x64 (_ bv9 8)))
(assert (bvult x66 (_ bv9 8)))
(assert (bvult x68 (_ bv9 8)))
(assert (bvult x70 (_ bv9 8)))
(assert (bvult x72 (_ bv9 8)))
(assert (bvult x74 (_ bv9 8)))
(assert (bvult x76 (_ bv9 8)))
(assert (bvult x77 (_ bv9 8)))
(assert (bvult x78 (_ bv9 8)))
(assert (bvult x80 (_ bv9 8)))
(assert (bvult x81 (_ bv9 8)))
(assert (bvult x85 (_ bv9 8)))
(assert (bvult x87 (_ bv9 8)))
(assert (not (= (_ bv1 8) x01)))
(assert (not (= (_ bv1 8) x02)))
(assert (not (= (_ bv1 8) (_ bv5 8))))
(assert (not (= (_ bv1 8) x04)))
(assert (not (= (_ bv1 8) x05)))
(assert (not (= (_ bv1 8) x06)))
(assert (not (= (_ bv1 8) (_ bv3 8))))
(assert (not (= (_ bv1 8) (_ bv6 8))))
(assert (not (= x01 x02)))
(assert (not (= x01 (_ bv5 8))))
(assert (not (= x01 x04)))
(assert (not (= x01 x05)))
(assert (not (= x01 x06)))
(assert (not (= x01 (_ bv3 8))))
(assert (not (= x01 (_ bv6 8))))
(assert (not (= x02 (_ bv5 8))))
(assert (not (= x02 x04)))
(assert (not (= x02 x05)))
(assert (not (= x02 x06)))
(assert (not (= x02 (_ bv3 8))))
(assert (not (= x02 (_ bv6 8))))
(assert (not (= (_ bv5 8) x04)))
(assert (not (= (_ bv5 8) x05)))
(assert (not (= (_ bv5 8) x06)))
(assert (not (= (_ bv5 8) (_ bv3 8))))
(assert (not (= (_ bv5 8) (_ bv6 8))))
(assert (not (= x04 x05)))
(assert (not (= x04 x06)))
(assert (not (= x04 (_ bv3 8))))
(assert (not (= x04 (_ bv6 8))))
(assert (not (= x05 x06)))
(assert (not (= x05 (_ bv3 8))))
(assert (not (= x05 (_ bv6 8))))
(assert (not (= x06 (_ bv3 8))))
(assert (not (= x06 (_ bv6 8))))
(assert (not (= (_ bv3 8) (_ bv6 8))))
(assert (not (= (_ bv9 8) (_ bv7 8))))
(assert (not (= (_ bv9 8) x12)))
(assert (not (= (_ bv9 8) (_ bv1 8))))
(assert (not (= (_ bv9 8) (_ bv3 8))))
(assert (not (= (_ bv9 8) x15)))
(assert (not (= (_ bv9 8) (_ bv4 8))))
(assert (not (= (_ bv9 8) x17)))
(assert (not (= (_ bv9 8) x18)))
(assert (not (= (_ bv7 8) x12)))
(assert (not (= (_ bv7 8) (_ bv1 8))))
(assert (not (= (_ bv7 8) (_ bv3 8))))
(assert (not (= (_ bv7 8) x15)))
(assert (not (= (_ bv7 8) (_ bv4 8))))
(assert (not (= (_ bv7 8) x17)))
(assert (not (= (_ bv7 8) x18)))
(assert (not (= x12 (_ bv1 8))))
(assert (not (= x12 (_ bv3 8))))
(assert (not (= x12 x15)))
(assert (not (= x12 (_ bv4 8))))
(assert (not (= x12 x17)))
(assert (not (= x12 x18)))
(assert (not (= (_ bv1 8) (_ bv3 8))))
(assert (not (= (_ bv1 8) x15)))
(assert (not (= (_ bv1 8) (_ bv4 8))))
(assert (not (= (_ bv1 8) x17)))
(assert (not (= (_ bv1 8) x18)))
(assert (not (= (_ bv3 8) x15)))
(assert (not (= (_ bv3 8) (_ bv4 8))))
(assert (not (= (_ bv3 8) x17)))
(assert (not (= (_ bv3 8) x18)))
(assert (not (= x15 (_ bv4 8))))
(assert (not (= x15 x17)))
(assert (not (= x15 x18)))
(assert (not (= (_ bv4 8) x17)))
(assert (not (= (_ bv4 8) x18)))
(assert (not (= x17 x18)))
(assert (not (= x20 x21)))
(assert (not (= x20 (_ bv4 8))))
(assert (not (= x20 (_ bv2 8))))
(assert (not (= x20 x24)))
(assert (not (= x20 x25)))
(assert (not (= x20 (_ bv8 8))))
(assert (not (= x20 x27)))
(assert (not (= x20 x28)))
(assert (not (= x21 (_ bv4 8))))
(assert (not (= x21 (_ bv2 8))))
(assert (not (= x21 x24)))
(assert (not (= x21 x25)))
(assert (not (= x21 (_ bv8 8))))
(assert (not (= x21 x27)))
(assert (not (= x21 x28)))
(assert (not (= (_ bv4 8) (_ bv2 8))))
(assert (not (= (_ bv4 8) x24)))
(assert (not (= (_ bv4 8) x25)))
(assert (not (= (_ bv4 8) (_ bv8 8))))
(assert (not (= (_ bv4 8) x27)))
(assert (not (= (_ bv4 8) x28)))
(assert (not (= (_ bv2 8) x24)))
(assert (not (= (_ bv2 8) x25)))
(assert (not (= (_ bv2 8) (_ bv8 8))))
(assert (not (= (_ bv2 8) x27)))
(assert (not (= (_ bv2 8) x28)))
(assert (not (= x24 x25)))
(assert (not (= x24 (_ bv8 8))))
(assert (not (= x24 x27)))
(assert (not (= x24 x28)))
(assert (not (= x25 (_ bv8 8))))
(assert (not (= x25 x27)))
(assert (not (= x25 x28)))
(assert (not (= (_ bv8 8) x27)))
(assert (not (= (_ bv8 8) x28)))
(assert (not (= x27 x28)))
(assert (not (= (_ bv8 8) x31)))
(assert (not (= (_ bv8 8) x32)))
(assert (not (= (_ bv8 8) x33)))
(assert (not (= (_ bv8 8) x34)))
(assert (not (= (_ bv8 8) (_ bv9 8))))
(assert (not (= (_ bv8 8) x36)))
(assert (not (= (_ bv8 8) x37)))
(assert (not (= (_ bv8 8) (_ bv7 8))))
(assert (not (= x31 x32)))
(assert (not (= x31 x33)))
(assert (not (= x31 x34)))
(assert (not (= x31 (_ bv9 8))))
(assert (not (= x31 x36)))
(assert (not (= x31 x37)))
(assert (not (= x31 (_ bv7 8))))
(assert (not (= x32 x33)))
(assert (not (= x32 x34)))
(assert (not (= x32 (_ bv9 8))))
(assert (not (= x32 x36)))
(assert (not (= x32 x37)))
(assert (not (= x32 (_ bv7 8))))
(assert (not (= x33 x34)))
(assert (not (= x33 (_ bv9 8))))
(assert (not (= x33 x36)))
(assert (not (= x33 x37)))
(assert (not (= x33 (_ bv7 8))))
(assert (not (= x34 (_ bv9 8))))
(assert (not (= x34 x36)))
(assert (not (= x34 x37)))
(assert (not (= x34 (_ bv7 8))))
(assert (not (= (_ bv9 8) x36)))
(assert (not (= (_ bv9 8) x37)))
(assert (not (= (_ bv9 8) (_ bv7 8))))
(assert (not (= x36 x37)))
(assert (not (= x36 (_ bv7 8))))
(assert (not (= x37 (_ bv7 8))))
(assert (not (= (_ bv7 8) (_ bv5 8))))
(assert (not (= (_ bv7 8) x42)))
(assert (not (= (_ bv7 8) (_ bv8 8))))
(assert (not (= (_ bv7 8) x44)))
(assert (not (= (_ bv7 8) x45)))
(assert (not (= (_ bv7 8) x46)))
(assert (not (= (_ bv7 8) x47)))
(assert (not (= (_ bv7 8) (_ bv3 8))))
(assert (not (= (_ bv5 8) x42)))
(assert (not (= (_ bv5 8) (_ bv8 8))))
(assert (not (= (_ bv5 8) x44)))
(assert (not (= (_ bv5 8) x45)))
(assert (not (= (_ bv5 8) x46)))
(assert (not (= (_ bv5 8) x47)))
(assert (not (= (_ bv5 8) (_ bv3 8))))
(assert (not (= x42 (_ bv8 8))))
(assert (not (= x42 x44)))
(assert (not (= x42 x45)))
(assert (not (= x42 x46)))
(assert (not (= x42 x47)))
(assert (not (= x42 (_ bv3 8))))
(assert (not (= (_ bv8 8) x44)))
(assert (not (= (_ bv8 8) x45)))
(assert (not (= (_ bv8 8) x46)))
(assert (not (= (_ bv8 8) x47)))
(assert (not (= (_ bv8 8) (_ bv3 8))))
(assert (not (= x44 x45)))
(assert (not (= x44 x46)))
(assert (not (= x44 x47)))
(assert (not (= x44 (_ bv3 8))))
(assert (not (= x45 x46)))
(assert (not (= x45 x47)))
(assert (not (= x45 (_ bv3 8))))
(assert (not (= x46 x47)))
(assert (not (= x46 (_ bv3 8))))
(assert (not (= x47 (_ bv3 8))))
(assert (not (= x50 x51)))
(assert (not (= x50 x52)))
(assert (not (= x50 x53)))
(assert (not (= x50 (_ bv4 8))))
(assert (not (= x50 x55)))
(assert (not (= x50 (_ bv9 8))))
(assert (not (= x50 (_ bv1 8))))
(assert (not (= x50 x58)))
(assert (not (= x51 x52)))
(assert (not (= x51 x53)))
(assert (not (= x51 (_ bv4 8))))
(assert (not (= x51 x55)))
(assert (not (= x51 (_ bv9 8))))
(assert (not (= x51 (_ bv1 8))))
(assert (not (= x51 x58)))
(assert (not (= x52 x53)))
(assert (not (= x52 (_ bv4 8))))
(assert (not (= x52 x55)))
(assert (not (= x52 (_ bv9 8))))
(assert (not (= x52 (_ bv1 8))))
(assert (not (= x52 x58)))
(assert (not (= x53 (_ bv4 8))))
(assert (not (= x53 x55)))
(assert (not (= x53 (_ bv9 8))))
(assert (not (= x53 (_ bv1 8))))
(assert (not (= x53 x58)))
(assert (not (= (_ bv4 8) x55)))
(assert (not (= (_ bv4 8) (_ bv9 8))))
(assert (not (= (_ bv4 8) (_ bv1 8))))
(assert (not (= (_ bv4 8) x58)))
(assert (not (= x55 (_ bv9 8))))
(assert (not (= x55 (_ bv1 8))))
(assert (not (= x55 x58)))
(assert (not (= (_ bv9 8) (_ bv1 8))))
(assert (not (= (_ bv9 8) x58)))
(assert (not (= (_ bv1 8) x58)))
(assert (not (= (_ bv3 8) x61)))
(assert (not (= (_ bv3 8) (_ bv5 8))))
(assert (not (= (_ bv3 8) x63)))
(assert (not (= (_ bv3 8) x64)))
(assert (not (= (_ bv3 8) (_ bv7 8))))
(assert (not (= (_ bv3 8) x66)))
(assert (not (= (_ bv3 8) (_ bv6 8))))
(assert (not (= (_ bv3 8) x68)))
(assert (not (= x61 (_ bv5 8))))
(assert (not (= x61 x63)))
(assert (not (= x61 x64)))
(assert (not (= x61 (_ bv7 8))))
(assert (not (= x61 x66)))
(assert (not (= x61 (_ bv6 8))))
(assert (not (= x61 x68)))
(assert (not (= (_ bv5 8) x63)))
(assert (not (= (_ bv5 8) x64)))
(assert (not (= (_ bv5 8) (_ bv7 8))))
(assert (not (= (_ bv5 8) x66)))
(assert (not (= (_ bv5 8) (_ bv6 8))))
(assert (not (= (_ bv5 8) x68)))
(assert (not (= x63 x64)))
(assert (not (= x63 (_ bv7 8))))
(assert (not (= x63 x66)))
(assert (not (= x63 (_ bv6 8))))
(assert (not (= x63 x68)))
(assert (not (= x64 (_ bv7 8))))
(assert (not (= x64 x66)))
(assert (not (= x64 (_ bv6 8))))
(assert (not (= x64 x68)))
(assert (not (= (_ bv7 8) x66)))
(assert (not (= (_ bv7 8) (_ bv6 8))))
(assert (not (= (_ bv7 8) x68)))
(assert (not (= x66 (_ bv6 8))))
(assert (not (= x66 x68)))
(assert (not (= (_ bv6 8) x68)))
(assert (not (= x70 (_ bv1 8))))
(assert (not (= x70 x72)))
(assert (not (= x70 (_ bv4 8))))
(assert (not (= x70 x74)))
(assert (not (= x70 (_ bv2 8))))
(assert (not (= x70 x76)))
(assert (not (= x70 x77)))
(assert (not (= x70 x78)))
(assert (not (= (_ bv1 8) x72)))
(assert (not (= (_ bv1 8) (_ bv4 8))))
(assert (not (= (_ bv1 8) x74)))
(assert (not (= (_ bv1 8) (_ bv2 8))))
(assert (not (= (_ bv1 8) x76)))
(assert (not (= (_ bv1 8) x77)))
(assert (not (= (_ bv1 8) x78)))
(assert (not (= x72 (_ bv4 8))))
(assert (not (= x72 x74)))
(assert (not (= x72 (_ bv2 8))))
(assert (not (= x72 x76)))
(assert (not (= x72 x77)))
(assert (not (= x72 x78)))
(assert (not (= (_ bv4 8) x74)))
(assert (not (= (_ bv4 8) (_ bv2 8))))
(assert (not (= (_ bv4 8) x76)))
(assert (not (= (_ bv4 8) x77)))
(assert (not (= (_ bv4 8) x78)))
(assert (not (= x74 (_ bv2 8))))
(assert (not (= x74 x76)))
(assert (not (= x74 x77)))
(assert (not (= x74 x78)))
(assert (not (= (_ bv2 8) x76)))
(assert (not (= (_ bv2 8) x77)))
(assert (not (= (_ bv2 8) x78)))
(assert (not (= x76 x77)))
(assert (not (= x76 x78)))
(assert (not (= x77 x78)))
(assert (not (= x80 x81)))
(assert (not (= x80 (_ bv8 8))))
(assert (not (= x80 (_ bv6 8))))
(assert (not (= x80 (_ bv1 8))))
(assert (not (= x80 x85)))
(assert (not (= x80 (_ bv2 8))))
(assert (not (= x80 x87)))
(assert (not (= x80 (_ bv5 8))))
(assert (not (= x81 (_ bv8 8))))
(assert (not (= x81 (_ bv6 8))))
(assert (not (= x81 (_ bv1 8))))
(assert (not (= x81 x85)))
(assert (not (= x81 (_ bv2 8))))
(assert (not (= x81 x87)))
(assert (not (= x81 (_ bv5 8))))
(assert (not (= (_ bv8 8) (_ bv6 8))))
(assert (not (= (_ bv8 8) (_ bv1 8))))
(assert (not (= (_ bv8 8) x85)))
(assert (not (= (_ bv8 8) (_ bv2 8))))
(assert (not (= (_ bv8 8) x87)))
(assert (not (= (_ bv8 8) (_ bv5 8))))
(assert (not (= (_ bv6 8) (_ bv1 8))))
(assert (not (= (_ bv6 8) x85)))
(assert (not (= (_ bv6 8) (_ bv2 8))))
(assert (not (= (_ bv6 8) x87)))
(assert (not (= (_ bv6 8) (_ bv5 8))))
(assert (not (= (_ bv1 8) x85)))
(assert (not (= (_ bv1 8) (_ bv2 8))))
(assert (not (= (_ bv1 8) x87)))
(assert (not (= (_ bv1 8) (_ bv5 8))))
(assert (not (= x85 (_ bv2 8))))
(assert (not (= x85 x87)))
(assert (not (= x85 (_ bv5 8))))
(assert (not (= (_ bv2 8) x87)))
(assert (not (= (_ bv2 8) (_ bv5 8))))
(assert (not (= x87 (_ bv5 8))))
(assert (not (= (_ bv1 8) (_ bv9 8))))
(assert (not (= (_ bv1 8) x20)))
(assert (not (= (_ bv1 8) (_ bv8 8))))
(assert (not (= (_ bv1 8) (_ bv7 8))))
(assert (not (= (_ bv1 8) x50)))
(assert (not (= (_ bv1 8) (_ bv3 8))))
(assert (not (= (_ bv1 8) x70)))
(assert (not (= (_ bv1 8) x80)))
(assert (not (= (_ bv9 8) x20)))
(assert (not (= (_ bv9 8) (_ bv8 8))))
(assert (not (= (_ bv9 8) (_ bv7 8))))
(assert (not (= (_ bv9 8) x50)))
(assert (not (= (_ bv9 8) (_ bv3 8))))
(assert (not (= (_ bv9 8) x70)))
(assert (not (= (_ bv9 8) x80)))
(assert (not (= x20 (_ bv8 8))))
(assert (not (= x20 (_ bv7 8))))
(assert (not (= x20 x50)))
(assert (not (= x20 (_ bv3 8))))
(assert (not (= x20 x70)))
(assert (not (= x20 x80)))
(assert (not (= (_ bv8 8) (_ bv7 8))))
(assert (not (= (_ bv8 8) x50)))
(assert (not (= (_ bv8 8) (_ bv3 8))))
(assert (not (= (_ bv8 8) x70)))
(assert (not (= (_ bv8 8) x80)))
(assert (not (= (_ bv7 8) x50)))
(assert (not (= (_ bv7 8) (_ bv3 8))))
(assert (not (= (_ bv7 8) x70)))
(assert (not (= (_ bv7 8) x80)))
(assert (not (= x50 (_ bv3 8))))
(assert (not (= x50 x70)))
(assert (not (= x50 x80)))
(assert (not (= (_ bv3 8) x70)))
(assert (not (= (_ bv3 8) x80)))
(assert (not (= x70 x80)))
(assert (not (= x01 (_ bv7 8))))
(assert (not (= x01 x21)))
(assert (not (= x01 x31)))
(assert (not (= x01 (_ bv5 8))))
(assert (not (= x01 x51)))
(assert (not (= x01 x61)))
(assert (not (= x01 (_ bv1 8))))
(assert (not (= x01 x81)))
(assert (not (= (_ bv7 8) x21)))
(assert (not (= (_ bv7 8) x31)))
(assert (not (= (_ bv7 8) (_ bv5 8))))
(assert (not (= (_ bv7 8) x51)))
(assert (not (= (_ bv7 8) x61)))
(assert (not (= (_ bv7 8) (_ bv1 8))))
(assert (not (= (_ bv7 8) x81)))
(assert (not (= x21 x31)))
(assert (not (= x21 (_ bv5 8))))
(assert (not (= x21 x51)))
(assert (not (= x21 x61)))
(assert (not (= x21 (_ bv1 8))))
(assert (not (= x21 x81)))
(assert (not (= x31 (_ bv5 8))))
(assert (not (= x31 x51)))
(assert (not (= x31 x61)))
(assert (not (= x31 (_ bv1 8))))
(assert (not (= x31 x81)))
(assert (not (= (_ bv5 8) x51)))
(assert (not (= (_ bv5 8) x61)))
(assert (not (= (_ bv5 8) (_ bv1 8))))
(assert (not (= (_ bv5 8) x81)))
(assert (not (= x51 x61)))
(assert (not (= x51 (_ bv1 8))))
(assert (not (= x51 x81)))
(assert (not (= x61 (_ bv1 8))))
(assert (not (= x61 x81)))
(assert (not (= (_ bv1 8) x81)))
(assert (not (= x02 x12)))
(assert (not (= x02 (_ bv4 8))))
(assert (not (= x02 x32)))
(assert (not (= x02 x42)))
(assert (not (= x02 x52)))
(assert (not (= x02 (_ bv5 8))))
(assert (not (= x02 x72)))
(assert (not (= x02 (_ bv8 8))))
(assert (not (= x12 (_ bv4 8))))
(assert (not (= x12 x32)))
(assert (not (= x12 x42)))
(assert (not (= x12 x52)))
(assert (not (= x12 (_ bv5 8))))
(assert (not (= x12 x72)))
(assert (not (= x12 (_ bv8 8))))
(assert (not (= (_ bv4 8) x32)))
(assert (not (= (_ bv4 8) x42)))
(assert (not (= (_ bv4 8) x52)))
(assert (not (= (_ bv4 8) (_ bv5 8))))
(assert (not (= (_ bv4 8) x72)))
(assert (not (= (_ bv4 8) (_ bv8 8))))
(assert (not (= x32 x42)))
(assert (not (= x32 x52)))
(assert (not (= x32 (_ bv5 8))))
(assert (not (= x32 x72)))
(assert (not (= x32 (_ bv8 8))))
(assert (not (= x42 x52)))
(assert (not (= x42 (_ bv5 8))))
(assert (not (= x42 x72)))
(assert (not (= x42 (_ bv8 8))))
(assert (not (= x52 (_ bv5 8))))
(assert (not (= x52 x72)))
(assert (not (= x52 (_ bv8 8))))
(assert (not (= (_ bv5 8) x72)))
(assert (not (= (_ bv5 8) (_ bv8 8))))
(assert (not (= x72 (_ bv8 8))))
(assert (not (= (_ bv5 8) (_ bv1 8))))
(assert (not (= (_ bv5 8) (_ bv2 8))))
(assert (not (= (_ bv5 8) x33)))
(assert (not (= (_ bv5 8) (_ bv8 8))))
(assert (not (= (_ bv5 8) x53)))
(assert (not (= (_ bv5 8) x63)))
(assert (not (= (_ bv5 8) (_ bv4 8))))
(assert (not (= (_ bv5 8) (_ bv6 8))))
(assert (not (= (_ bv1 8) (_ bv2 8))))
(assert (not (= (_ bv1 8) x33)))
(assert (not (= (_ bv1 8) (_ bv8 8))))
(assert (not (= (_ bv1 8) x53)))
(assert (not (= (_ bv1 8) x63)))
(assert (not (= (_ bv1 8) (_ bv4 8))))
(assert (not (= (_ bv1 8) (_ bv6 8))))
(assert (not (= (_ bv2 8) x33)))
(assert (not (= (_ bv2 8) (_ bv8 8))))
(assert (not (= (_ bv2 8) x53)))
(assert (not (= (_ bv2 8) x63)))
(assert (not (= (_ bv2 8) (_ bv4 8))))
(assert (not (= (_ bv2 8) (_ bv6 8))))
(assert (not (= x33 (_ bv8 8))))
(assert (not (= x33 x53)))
(assert (not (= x33 x63)))
(assert (not (= x33 (_ bv4 8))))
(assert (not (= x33 (_ bv6 8))))
(assert (not (= (_ bv8 8) x53)))
(assert (not (= (_ bv8 8) x63)))
(assert (not (= (_ bv8 8) (_ bv4 8))))
(assert (not (= (_ bv8 8) (_ bv6 8))))
(assert (not (= x53 x63)))
(assert (not (= x53 (_ bv4 8))))
(assert (not (= x53 (_ bv6 8))))
(assert (not (= x63 (_ bv4 8))))
(assert (not (= x63 (_ bv6 8))))
(assert (not (= (_ bv4 8) (_ bv6 8))))
(assert (not (= x04 (_ bv3 8))))
(assert (not (= x04 x24)))
(assert (not (= x04 x34)))
(assert (not (= x04 x44)))
(assert (not (= x04 (_ bv4 8))))
(assert (not (= x04 x64)))
(assert (not (= x04 x74)))
(assert (not (= x04 (_ bv1 8))))
(assert (not (= (_ bv3 8) x24)))
(assert (not (= (_ bv3 8) x34)))
(assert (not (= (_ bv3 8) x44)))
(assert (not (= (_ bv3 8) (_ bv4 8))))
(assert (not (= (_ bv3 8) x64)))
(assert (not (= (_ bv3 8) x74)))
(assert (not (= (_ bv3 8) (_ bv1 8))))
(assert (not (= x24 x34)))
(assert (not (= x24 x44)))
(assert (not (= x24 (_ bv4 8))))
(assert (not (= x24 x64)))
(assert (not (= x24 x74)))
(assert (not (= x24 (_ bv1 8))))
(assert (not (= x34 x44)))
(assert (not (= x34 (_ bv4 8))))
(assert (not (= x34 x64)))
(assert (not (= x34 x74)))
(assert (not (= x34 (_ bv1 8))))
(assert (not (= x44 (_ bv4 8))))
(assert (not (= x44 x64)))
(assert (not (= x44 x74)))
(assert (not (= x44 (_ bv1 8))))
(assert (not (= (_ bv4 8) x64)))
(assert (not (= (_ bv4 8) x74)))
(assert (not (= (_ bv4 8) (_ bv1 8))))
(assert (not (= x64 x74)))
(assert (not (= x64 (_ bv1 8))))
(assert (not (= x74 (_ bv1 8))))
(assert (not (= x05 x15)))
(assert (not (= x05 x25)))
(assert (not (= x05 (_ bv9 8))))
(assert (not (= x05 x45)))
(assert (not (= x05 x55)))
(assert (not (= x05 (_ bv7 8))))
(assert (not (= x05 (_ bv2 8))))
(assert (not (= x05 x85)))
(assert (not (= x15 x25)))
(assert (not (= x15 (_ bv9 8))))
(assert (not (= x15 x45)))
(assert (not (= x15 x55)))
(assert (not (= x15 (_ bv7 8))))
(assert (not (= x15 (_ bv2 8))))
(assert (not (= x15 x85)))
(assert (not (= x25 (_ bv9 8))))
(assert (not (= x25 x45)))
(assert (not (= x25 x55)))
(assert (not (= x25 (_ bv7 8))))
(assert (not (= x25 (_ bv2 8))))
(assert (not (= x25 x85)))
(assert (not (= (_ bv9 8) x45)))
(assert (not (= (_ bv9 8) x55)))
(assert (not (= (_ bv9 8) (_ bv7 8))))
(assert (not (= (_ bv9 8) (_ bv2 8))))
(assert (not (= (_ bv9 8) x85)))
(assert (not (= x45 x55)))
(assert (not (= x45 (_ bv7 8))))
(assert (not (= x45 (_ bv2 8))))
(assert (not (= x45 x85)))
(assert (not (= x55 (_ bv7 8))))
(assert (not (= x55 (_ bv2 8))))
(assert (not (= x55 x85)))
(assert (not (= (_ bv7 8) (_ bv2 8))))
(assert (not (= (_ bv7 8) x85)))
(assert (not (= (_ bv2 8) x85)))
(assert (not (= x06 (_ bv4 8))))
(assert (not (= x06 (_ bv8 8))))
(assert (not (= x06 x36)))
(assert (not (= x06 x46)))
(assert (not (= x06 (_ bv9 8))))
(assert (not (= x06 x66)))
(assert (not (= x06 x76)))
(assert (not (= x06 (_ bv2 8))))
(assert (not (= (_ bv4 8) (_ bv8 8))))
(assert (not (= (_ bv4 8) x36)))
(assert (not (= (_ bv4 8) x46)))
(assert (not (= (_ bv4 8) (_ bv9 8))))
(assert (not (= (_ bv4 8) x66)))
(assert (not (= (_ bv4 8) x76)))
(assert (not (= (_ bv4 8) (_ bv2 8))))
(assert (not (= (_ bv8 8) x36)))
(assert (not (= (_ bv8 8) x46)))
(assert (not (= (_ bv8 8) (_ bv9 8))))
(assert (not (= (_ bv8 8) x66)))
(assert (not (= (_ bv8 8) x76)))
(assert (not (= (_ bv8 8) (_ bv2 8))))
(assert (not (= x36 x46)))
(assert (not (= x36 (_ bv9 8))))
(assert (not (= x36 x66)))
(assert (not (= x36 x76)))
(assert (not (= x36 (_ bv2 8))))
(assert (not (= x46 (_ bv9 8))))
(assert (not (= x46 x66)))
(assert (not (= x46 x76)))
(assert (not (= x46 (_ bv2 8))))
(assert (not (= (_ bv9 8) x66)))
(assert (not (= (_ bv9 8) x76)))
(assert (not (= (_ bv9 8) (_ bv2 8))))
(assert (not (= x66 x76)))
(assert (not (= x66 (_ bv2 8))))
(assert (not (= x76 (_ bv2 8))))
(assert (not (= (_ bv3 8) x17)))
(assert (not (= (_ bv3 8) x27)))
(assert (not (= (_ bv3 8) x37)))
(assert (not (= (_ bv3 8) x47)))
(assert (not (= (_ bv3 8) (_ bv1 8))))
(assert (not (= (_ bv3 8) (_ bv6 8))))
(assert (not (= (_ bv3 8) x77)))
(assert (not (= (_ bv3 8) x87)))
(assert (not (= x17 x27)))
(assert (not (= x17 x37)))
(assert (not (= x17 x47)))
(assert (not (= x17 (_ bv1 8))))
(assert (not (= x17 (_ bv6 8))))
(assert (not (= x17 x77)))
(assert (not (= x17 x87)))
(assert (not (= x27 x37)))
(assert (not (= x27 x47)))
(assert (not (= x27 (_ bv1 8))))
(assert (not (= x27 (_ bv6 8))))
(assert (not (= x27 x77)))
(assert (not (= x27 x87)))
(assert (not (= x37 x47)))
(assert (not (= x37 (_ bv1 8))))
(assert (not (= x37 (_ bv6 8))))
(assert (not (= x37 x77)))
(assert (not (= x37 x87)))
(assert (not (= x47 (_ bv1 8))))
(assert (not (= x47 (_ bv6 8))))
(assert (not (= x47 x77)))
(assert (not (= x47 x87)))
(assert (not (= (_ bv1 8) (_ bv6 8))))
(assert (not (= (_ bv1 8) x77)))
(assert (not (= (_ bv1 8) x87)))
(assert (not (= (_ bv6 8) x77)))
(assert (not (= (_ bv6 8) x87)))
(assert (not (= x77 x87)))
(assert (not (= (_ bv6 8) x18)))
(assert (not (= (_ bv6 8) x28)))
(assert (not (= (_ bv6 8) (_ bv7 8))))
(assert (not (= (_ bv6 8) (_ bv3 8))))
(assert (not (= (_ bv6 8) x58)))
(assert (not (= (_ bv6 8) x68)))
(assert (not (= (_ bv6 8) x78)))
(assert (not (= (_ bv6 8) (_ bv5 8))))
(assert (not (= x18 x28)))
(assert (not (= x18 (_ bv7 8))))
(assert (not (= x18 (_ bv3 8))))
(assert (not (= x18 x58)))
(assert (not (= x18 x68)))
(assert (not (= x18 x78)))
(assert (not (= x18 (_ bv5 8))))
(assert (not (= x28 (_ bv7 8))))
(assert (not (= x28 (_ bv3 8))))
(assert (not (= x28 x58)))
(assert (not (= x28 x68)))
(assert (not (= x28 x78)))
(assert (not (= x28 (_ bv5 8))))
(assert (not (= (_ bv7 8) (_ bv3 8))))
(assert (not (= (_ bv7 8) x58)))
(assert (not (= (_ bv7 8) x68)))
(assert (not (= (_ bv7 8) x78)))
(assert (not (= (_ bv7 8) (_ bv5 8))))
(assert (not (= (_ bv3 8) x58)))
(assert (not (= (_ bv3 8) x68)))
(assert (not (= (_ bv3 8) x78)))
(assert (not (= (_ bv3 8) (_ bv5 8))))
(assert (not (= x58 x68)))
(assert (not (= x58 x78)))
(assert (not (= x58 (_ bv5 8))))
(assert (not (= x68 x78)))
(assert (not (= x68 (_ bv5 8))))
(assert (not (= x78 (_ bv5 8))))
(assert (not (= (_ bv1 8) x01)))
(assert (not (= (_ bv1 8) x02)))
(assert (not (= (_ bv1 8) (_ bv9 8))))
(assert (not (= (_ bv1 8) (_ bv7 8))))
(assert (not (= (_ bv1 8) x12)))
(assert (not (= (_ bv1 8) x20)))
(assert (not (= (_ bv1 8) x21)))
(assert (not (= (_ bv1 8) (_ bv4 8))))
(assert (not (= x01 x02)))
(assert (not (= x01 (_ bv9 8))))
(assert (not (= x01 (_ bv7 8))))
(assert (not (= x01 x12)))
(assert (not (= x01 x20)))
(assert (not (= x01 x21)))
(assert (not (= x01 (_ bv4 8))))
(assert (not (= x02 (_ bv9 8))))
(assert (not (= x02 (_ bv7 8))))
(assert (not (= x02 x12)))
(assert (not (= x02 x20)))
(assert (not (= x02 x21)))
(assert (not (= x02 (_ bv4 8))))
(assert (not (= (_ bv9 8) (_ bv7 8))))
(assert (not (= (_ bv9 8) x12)))
(assert (not (= (_ bv9 8) x20)))
(assert (not (= (_ bv9 8) x21)))
(assert (not (= (_ bv9 8) (_ bv4 8))))
(assert (not (= (_ bv7 8) x12)))
(assert (not (= (_ bv7 8) x20)))
(assert (not (= (_ bv7 8) x21)))
(assert (not (= (_ bv7 8) (_ bv4 8))))
(assert (not (= x12 x20)))
(assert (not (= x12 x21)))
(assert (not (= x12 (_ bv4 8))))
(assert (not (= x20 x21)))
(assert (not (= x20 (_ bv4 8))))
(assert (not (= x21 (_ bv4 8))))
(assert (not (= (_ bv5 8) x04)))
(assert (not (= (_ bv5 8) x05)))
(assert (not (= (_ bv5 8) (_ bv1 8))))
(assert (not (= (_ bv5 8) (_ bv3 8))))
(assert (not (= (_ bv5 8) x15)))
(assert (not (= (_ bv5 8) (_ bv2 8))))
(assert (not (= (_ bv5 8) x24)))
(assert (not (= (_ bv5 8) x25)))
(assert (not (= x04 x05)))
(assert (not (= x04 (_ bv1 8))))
(assert (not (= x04 (_ bv3 8))))
(assert (not (= x04 x15)))
(assert (not (= x04 (_ bv2 8))))
(assert (not (= x04 x24)))
(assert (not (= x04 x25)))
(assert (not (= x05 (_ bv1 8))))
(assert (not (= x05 (_ bv3 8))))
(assert (not (= x05 x15)))
(assert (not (= x05 (_ bv2 8))))
(assert (not (= x05 x24)))
(assert (not (= x05 x25)))
(assert (not (= (_ bv1 8) (_ bv3 8))))
(assert (not (= (_ bv1 8) x15)))
(assert (not (= (_ bv1 8) (_ bv2 8))))
(assert (not (= (_ bv1 8) x24)))
(assert (not (= (_ bv1 8) x25)))
(assert (not (= (_ bv3 8) x15)))
(assert (not (= (_ bv3 8) (_ bv2 8))))
(assert (not (= (_ bv3 8) x24)))
(assert (not (= (_ bv3 8) x25)))
(assert (not (= x15 (_ bv2 8))))
(assert (not (= x15 x24)))
(assert (not (= x15 x25)))
(assert (not (= (_ bv2 8) x24)))
(assert (not (= (_ bv2 8) x25)))
(assert (not (= x24 x25)))
(assert (not (= x06 (_ bv3 8))))
(assert (not (= x06 (_ bv6 8))))
(assert (not (= x06 (_ bv4 8))))
(assert (not (= x06 x17)))
(assert (not (= x06 x18)))
(assert (not (= x06 (_ bv8 8))))
(assert (not (= x06 x27)))
(assert (not (= x06 x28)))
(assert (not (= (_ bv3 8) (_ bv6 8))))
(assert (not (= (_ bv3 8) (_ bv4 8))))
(assert (not (= (_ bv3 8) x17)))
(assert (not (= (_ bv3 8) x18)))
(assert (not (= (_ bv3 8) (_ bv8 8))))
(assert (not (= (_ bv3 8) x27)))
(assert (not (= (_ bv3 8) x28)))
(assert (not (= (_ bv6 8) (_ bv4 8))))
(assert (not (= (_ bv6 8) x17)))
(assert (not (= (_ bv6 8) x18)))
(assert (not (= (_ bv6 8) (_ bv8 8))))
(assert (not (= (_ bv6 8) x27)))
(assert (not (= (_ bv6 8) x28)))
(assert (not (= (_ bv4 8) x17)))
(assert (not (= (_ bv4 8) x18)))
(assert (not (= (_ bv4 8) (_ bv8 8))))
(assert (not (= (_ bv4 8) x27)))
(assert (not (= (_ bv4 8) x28)))
(assert (not (= x17 x18)))
(assert (not (= x17 (_ bv8 8))))
(assert (not (= x17 x27)))
(assert (not (= x17 x28)))
(assert (not (= x18 (_ bv8 8))))
(assert (not (= x18 x27)))
(assert (not (= x18 x28)))
(assert (not (= (_ bv8 8) x27)))
(assert (not (= (_ bv8 8) x28)))
(assert (not (= x27 x28)))
(assert (not (= (_ bv8 8) x31)))
(assert (not (= (_ bv8 8) x32)))
(assert (not (= (_ bv8 8) (_ bv7 8))))
(assert (not (= (_ bv8 8) (_ bv5 8))))
(assert (not (= (_ bv8 8) x42)))
(assert (not (= (_ bv8 8) x50)))
(assert (not (= (_ bv8 8) x51)))
(assert (not (= (_ bv8 8) x52)))
(assert (not (= x31 x32)))
(assert (not (= x31 (_ bv7 8))))
(assert (not (= x31 (_ bv5 8))))
(assert (not (= x31 x42)))
(assert (not (= x31 x50)))
(assert (not (= x31 x51)))
(assert (not (= x31 x52)))
(assert (not (= x32 (_ bv7 8))))
(assert (not (= x32 (_ bv5 8))))
(assert (not (= x32 x42)))
(assert (not (= x32 x50)))
(assert (not (= x32 x51)))
(assert (not (= x32 x52)))
(assert (not (= (_ bv7 8) (_ bv5 8))))
(assert (not (= (_ bv7 8) x42)))
(assert (not (= (_ bv7 8) x50)))
(assert (not (= (_ bv7 8) x51)))
(assert (not (= (_ bv7 8) x52)))
(assert (not (= (_ bv5 8) x42)))
(assert (not (= (_ bv5 8) x50)))
(assert (not (= (_ bv5 8) x51)))
(assert (not (= (_ bv5 8) x52)))
(assert (not (= x42 x50)))
(assert (not (= x42 x51)))
(assert (not (= x42 x52)))
(assert (not (= x50 x51)))
(assert (not (= x50 x52)))
(assert (not (= x51 x52)))
(assert (not (= x33 x34)))
(assert (not (= x33 (_ bv9 8))))
(assert (not (= x33 (_ bv8 8))))
(assert (not (= x33 x44)))
(assert (not (= x33 x45)))
(assert (not (= x33 x53)))
(assert (not (= x33 (_ bv4 8))))
(assert (not (= x33 x55)))
(assert (not (= x34 (_ bv9 8))))
(assert (not (= x34 (_ bv8 8))))
(assert (not (= x34 x44)))
(assert (not (= x34 x45)))
(assert (not (= x34 x53)))
(assert (not (= x34 (_ bv4 8))))
(assert (not (= x34 x55)))
(assert (not (= (_ bv9 8) (_ bv8 8))))
(assert (not (= (_ bv9 8) x44)))
(assert (not (= (_ bv9 8) x45)))
(assert (not (= (_ bv9 8) x53)))
(assert (not (= (_ bv9 8) (_ bv4 8))))
(assert (not (= (_ bv9 8) x55)))
(assert (not (= (_ bv8 8) x44)))
(assert (not (= (_ bv8 8) x45)))
(assert (not (= (_ bv8 8) x53)))
(assert (not (= (_ bv8 8) (_ bv4 8))))
(assert (not (= (_ bv8 8) x55)))
(assert (not (= x44 x45)))
(assert (not (= x44 x53)))
(assert (not (= x44 (_ bv4 8))))
(assert (not (= x44 x55)))
(assert (not (= x45 x53)))
(assert (not (= x45 (_ bv4 8))))
(assert (not (= x45 x55)))
(assert (not (= x53 (_ bv4 8))))
(assert (not (= x53 x55)))
(assert (not (= (_ bv4 8) x55)))
(assert (not (= x36 x37)))
(assert (not (= x36 (_ bv7 8))))
(assert (not (= x36 x46)))
(assert (not (= x36 x47)))
(assert (not (= x36 (_ bv3 8))))
(assert (not (= x36 (_ bv9 8))))
(assert (not (= x36 (_ bv1 8))))
(assert (not (= x36 x58)))
(assert (not (= x37 (_ bv7 8))))
(assert (not (= x37 x46)))
(assert (not (= x37 x47)))
(assert (not (= x37 (_ bv3 8))))
(assert (not (= x37 (_ bv9 8))))
(assert (not (= x37 (_ bv1 8))))
(assert (not (= x37 x58)))
(assert (not (= (_ bv7 8) x46)))
(assert (not (= (_ bv7 8) x47)))
(assert (not (= (_ bv7 8) (_ bv3 8))))
(assert (not (= (_ bv7 8) (_ bv9 8))))
(assert (not (= (_ bv7 8) (_ bv1 8))))
(assert (not (= (_ bv7 8) x58)))
(assert (not (= x46 x47)))
(assert (not (= x46 (_ bv3 8))))
(assert (not (= x46 (_ bv9 8))))
(assert (not (= x46 (_ bv1 8))))
(assert (not (= x46 x58)))
(assert (not (= x47 (_ bv3 8))))
(assert (not (= x47 (_ bv9 8))))
(assert (not (= x47 (_ bv1 8))))
(assert (not (= x47 x58)))
(assert (not (= (_ bv3 8) (_ bv9 8))))
(assert (not (= (_ bv3 8) (_ bv1 8))))
(assert (not (= (_ bv3 8) x58)))
(assert (not (= (_ bv9 8) (_ bv1 8))))
(assert (not (= (_ bv9 8) x58)))
(assert (not (= (_ bv1 8) x58)))
(assert (not (= (_ bv3 8) x61)))
(assert (not (= (_ bv3 8) (_ bv5 8))))
(assert (not (= (_ bv3 8) x70)))
(assert (not (= (_ bv3 8) (_ bv1 8))))
(assert (not (= (_ bv3 8) x72)))
(assert (not (= (_ bv3 8) x80)))
(assert (not (= (_ bv3 8) x81)))
(assert (not (= (_ bv3 8) (_ bv8 8))))
(assert (not (= x61 (_ bv5 8))))
(assert (not (= x61 x70)))
(assert (not (= x61 (_ bv1 8))))
(assert (not (= x61 x72)))
(assert (not (= x61 x80)))
(assert (not (= x61 x81)))
(assert (not (= x61 (_ bv8 8))))
(assert (not (= (_ bv5 8) x70)))
(assert (not (= (_ bv5 8) (_ bv1 8))))
(assert (not (= (_ bv5 8) x72)))
(assert (not (= (_ bv5 8) x80)))
(assert (not (= (_ bv5 8) x81)))
(assert (not (= (_ bv5 8) (_ bv8 8))))
(assert (not (= x70 (_ bv1 8))))
(assert (not (= x70 x72)))
(assert (not (= x70 x80)))
(assert (not (= x70 x81)))
(assert (not (= x70 (_ bv8 8))))
(assert (not (= (_ bv1 8) x72)))
(assert (not (= (_ bv1 8) x80)))
(assert (not (= (_ bv1 8) x81)))
(assert (not (= (_ bv1 8) (_ bv8 8))))
(assert (not (= x72 x80)))
(assert (not (= x72 x81)))
(assert (not (= x72 (_ bv8 8))))
(assert (not (= x80 x81)))
(assert (not (= x80 (_ bv8 8))))
(assert (not (= x81 (_ bv8 8))))
(assert (not (= x63 x64)))
(assert (not (= x63 (_ bv7 8))))
(assert (not (= x63 (_ bv4 8))))
(assert (not (= x63 x74)))
(assert (not (= x63 (_ bv2 8))))
(assert (not (= x63 (_ bv6 8))))
(assert (not (= x63 (_ bv1 8))))
(assert (not (= x63 x85)))
(assert (not (= x64 (_ bv7 8))))
(assert (not (= x64 (_ bv4 8))))
(assert (not (= x64 x74)))
(assert (not (= x64 (_ bv2 8))))
(assert (not (= x64 (_ bv6 8))))
(assert (not (= x64 (_ bv1 8))))
(assert (not (= x64 x85)))
(assert (not (= (_ bv7 8) (_ bv4 8))))
(assert (not (= (_ bv7 8) x74)))
(assert (not (= (_ bv7 8) (_ bv2 8))))
(assert (not (= (_ bv7 8) (_ bv6 8))))
(assert (not (= (_ bv7 8) (_ bv1 8))))
(assert (not (= (_ bv7 8) x85)))
(assert (not (= (_ bv4 8) x74)))
(assert (not (= (_ bv4 8) (_ bv2 8))))
(assert (not (= (_ bv4 8) (_ bv6 8))))
(assert (not (= (_ bv4 8) (_ bv1 8))))
(assert (not (= (_ bv4 8) x85)))
(assert (not (= x74 (_ bv2 8))))
(assert (not (= x74 (_ bv6 8))))
(assert (not (= x74 (_ bv1 8))))
(assert (not (= x74 x85)))
(assert (not (= (_ bv2 8) (_ bv6 8))))
(assert (not (= (_ bv2 8) (_ bv1 8))))
(assert (not (= (_ bv2 8) x85)))
(assert (not (= (_ bv6 8) (_ bv1 8))))
(assert (not (= (_ bv6 8) x85)))
(assert (not (= (_ bv1 8) x85)))
(assert (not (= x66 (_ bv6 8))))
(assert (not (= x66 x68)))
(assert (not (= x66 x76)))
(assert (not (= x66 x77)))
(assert (not (= x66 x78)))
(assert (not (= x66 (_ bv2 8))))
(assert (not (= x66 x87)))
(assert (not (= x66 (_ bv5 8))))
(assert (not (= (_ bv6 8) x68)))
(assert (not (= (_ bv6 8) x76)))
(assert (not (= (_ bv6 8) x77)))
(assert (not (= (_ bv6 8) x78)))
(assert (not (= (_ bv6 8) (_ bv2 8))))
(assert (not (= (_ bv6 8) x87)))
(assert (not (= (_ bv6 8) (_ bv5 8))))
(assert (not (= x68 x76)))
(assert (not (= x68 x77)))
(assert (not (= x68 x78)))
(assert (not (= x68 (_ bv2 8))))
(assert (not (= x68 x87)))
(assert (not (= x68 (_ bv5 8))))
(assert (not (= x76 x77)))
(assert (not (= x76 x78)))
(assert (not (= x76 (_ bv2 8))))
(assert (not (= x76 x87)))
(assert (not (= x76 (_ bv5 8))))
(assert (not (= x77 x78)))
(assert (not (= x77 (_ bv2 8))))
(assert (not (= x77 x87)))
(assert (not (= x77 (_ bv5 8))))
(assert (not (= x78 (_ bv2 8))))
(assert (not (= x78 x87)))
(assert (not (= x78 (_ bv5 8))))
(assert (not (= (_ bv2 8) x87)))
(assert (not (= (_ bv2 8) (_ bv5 8))))
(assert (not (= x87 (_ bv5 8))))
(check-sat)
(exit)
